2533
500000
333069
333069
333069
332671
332671
332671
332671
332671
332042
332042
332042
332042
332042
332042
332042
332042
332042
332042
332042
332042
332042
332042
332042
332042
330881
330881
330881
329860
329860
329860
329860
329860
329860
329860
329860
329860
329860
329462
329437
329437
329437
329437
329437
329437
329437
329437
329437
329437
329437
329437
329437
326909
326909
326909
326909
326909
326909
326909
326814
326814
326814
326814
326814
326814
326814
323839
323839
323839
323839
323839
323486
323486
323486
323486
323486
323486
322900
322900
322900
322900
322900
322900
322900
322900
322900
322900
322900
322900
322900
322900
322900
322900
322900
322900
322900
322900
320213
320213
320213
320213
320213
320213
320213
320213
320213
320213
320213
320213
320213
320213
320213
320213
320213
318514
318514
318514
318514
318514
318514
318514
318514
318514
318514
318514
318514
317154
317154
317154
317154
317154
317154
317154
317154
317154
317154
317154
317154
317154
317154
317154
317154
317154
317154
317154
316861
316861
316861
316861
316861
316861
316861
316861
316861
316861
316861
316861
313794
313794
313794
313794
313794
313794
313794
313794
313794
313794
313794
313794
313794
313794
313794
313794
313794
313794
313651
313651
313651
313651
313651
313651
313651
313651
313651
313651
313651
313651
313651
313651
313651
313651
313651
313651
312560
312560
312560
312560
312560
312211
312211
312211
312211
312211
312211
312211
312211
312211
312211
312211
312098
312098
312098
312098
312098
312098
312098
312098
310988
310988
310988
310988
310988
310988
310988
310988
310988
310988
310988
310988
310988
310988
310988
310988
310845
310845
310845
310845
310845
310845
310845
310845
310845
310845
310845
310845
310845
310834
310834
310834
310834
310834
310834
310834
310834
310834
310834
310834
309968
309968
309968
309968
309968
309968
309968
309968
309968
309968
308375
308375
308375
308375
308375
308375
308375
308375
308375
308375
308375
308375
308375
308375
308375
307534
307534
307534
307534
307534
307534
307534
307534
307426
307426
307426
307380
307380
307380
307380
305371
305204
305204
305204
305204
305204
305204
305204
305204
305204
305204
305204
305204
305204
304314
304314
302293
302293
302293
302293
302293
302293
299051
299051
299051
299051
299051
299051
299051
299051
299051
299051
298311
298311
298311
298311
298311
298311
298311
298311
298311
298311
298311
298311
298311
298311
298311
297816
297344
297344
297344
297344
297344
297344
297344
297344
297344
297344
297344
297344
297344
297344
297344
297344
297344
292947
292947
292947
292947
292947
292947
292947
291596
291596
291596
291596
291596
291596
291596
291596
291596
291596
291596
291596
291596
291596
287134
287134
287134
286645
286645
286645
284158
284158
283880
283880
283880
283880
283880
283880
283880
283880
283880
282334
282334
282334
282334
282334
282334
282334
282334
282334
282334
282334
282334
282334
282334
282334
282334
282334
282334
282334
281993
281993
281993
281993
281993
281993
281822
281822
281822
281822
281822
281715
281715
281715
281715
281715
281715
281715
281715
281715
281715
281715
281715
281715
281715
281715
281715
281715
279356
279356
279356
279356
279356
279356
279356
279356
279356
279356
278184
278184
278184
278184
278184
278184
278184
278184
277629
277629
277629
277629
277629
277629
277629
277629
277629
277629
271819
271819
271819
271819
271819
271819
271819
271819
271819
271819
271819
271819
271819
271819
271819
271819
271819
271819
271819
270169
270169
270169
270169
270169
270169
270169
270012
270012
270012
270012
270012
270012
270012
270012
270012
270012
270012
267011
267011
267011
267011
267011
267011
267011
267011
267011
267011
267011
267011
267011
267011
267011
267011
267011
267011
267011
266376
266376
266376
266376
266376
266376
266376
266376
266376
266376
266376
266376
265992
265992
265992
265992
265992
265992
265992
265992
265992
265992
265992
265992
265992
265992
265992
265992
265992
265992
265992
265992
265645
263793
263793
263793
263793
262692
262692
262692
262692
262692
262692
262692
262692
262692
262692
262644
262644
262644
262644
262644
262644
262118
262118
262118
262118
262118
262118
262118
262118
262118
262118
262118
262118
262118
262118
262118
262118
262118
262118
262084
262084
262084
262084
262084
262084
262084
260321
260321
260321
260321
260321
260321
260321
260321
260321
260321
260321
260321
260321
260304
260304
260304
260304
260304
260304
260304
260304
260304
260304
260304
260304
259814
259814
259814
259814
259814
259814
259814
259814
259814
259814
258963
258963
258963
258963
258302
258302
258302
258302
258302
258302
258302
258302
258302
258302
258302
258302
258302
257460
257460
257460
257460
257460
257460
257460
257460
257460
257460
257460
257460
254600
254600
254600
254600
254600
254600
254104
254104
254104
254104
254104
254104
254104
254104
254104
254104
254104
254104
254104
254104
253859
253859
253859
253816
253816
253816
253816
253816
253816
253816
253816
253816
253816
253816
253552
253552
253552
253552
253552
253552
253552
253552
253552
253552
252306
252306
252306
252306
252306
252306
252306
252306
252306
252306
252306
252306
252306
250628
250628
250628
250628
250628
250628
250628
250628
250628
250628
249439
249439
249439
249439
249439
249439
249439
249439
249439
249439
249439
249439
249439
249439
249439
249439
249439
249127
249127
249127
249127
249127
249127
249127
249127
249127
249127
249127
249127
249127
249127
249127
249127
249127
249127
249127
249127
249052
249052
249052
249052
249052
249052
249052
249052
249052
249052
249052
249052
247620
247620
247078
247078
247078
247078
247078
247078
247078
247078
247078
247078
247078
247078
247078
247078
247078
243718
243718
243718
243268
243268
243268
243268
243268
243268
243268
243268
243268
243268
243268
243268
243268
243268
243268
243268
243268
243268
243268
243268
241056
241056
241056
241056
241056
241056
241056
241056
241056
241056
241056
241056
241056
241056
240297
240297
240297
240297
240297
240297
240297
240297
240297
240297
240297
240297
240297
240297
240297
240297
240297
240297
240297
240297
239831
239831
239831
239709
239709
239709
239709
239709
239709
239709
239709
239709
239709
239709
239709
239709
239709
239709
239709
239709
239709
239709
239709
237820
237820
237820
237820
237820
237820
237820
237820
236317
236317
236317
236317
236317
236317
236317
236317
236317
236317
236317
236317
236317
236317
236317
236317
236317
236317
236317
236317
235021
235021
235021
235021
232283
232283
232283
232283
232283
232283
232283
232283
232283
232283
232283
232283
231283
231283
231283
231283
231283
230546
230546
230546
230546
230546
230546
230546
230546
230546
230546
228811
228811
228811
228811
228811
228811
228811
228811
228811
228811
226424
226424
226424
226424
226424
226424
226424
226027
226027
226027
226027
224788
224788
224788
224788
224663
224663
224663
224663
224663
222156
222156
222156
222156
222156
222156
222156
222156
222156
222156
222156
222156
222156
221876
221876
221876
221876
221876
221876
221876
221876
221876
221876
221876
221876
221876
221876
220877
220877
220877
220877
220877
220877
220877
220877
220877
220877
220877
220877
220877
220534
220534
220534
220534
220534
220534
220534
220534
220534
220534
220534
220534
220534
220534
220534
220534
219607
219607
219607
219607
219607
219607
219171
219171
219171
219171
219171
219171
219171
219171
219171
219171
219171
219171
219171
219171
219171
219171
219171
219171
219171
219171
216873
216873
216873
216873
216873
216873
216873
216873
216873
216873
215192
215192
215192
215192
215192
215192
215192
215192
215192
215192
215192
215192
215192
215192
215192
215192
215192
213107
213107
213107
213107
213107
213107
213107
213107
213107
213107
213107
213107
213107
213107
213107
213107
213107
213107
213107
213107
210677
210677
210677
210677
210677
210677
210677
210677
210677
210677
210677
210677
210677
210677
210515
210515
210515
210515
210515
210456
210456
210456
210456
210456
210456
210456
210456
210456
210456
210456
210456
210456
210387
209135
208397
208397
208107
208107
208107
208107
208107
206484
206484
206484
206484
206484
206484
206484
206484
206484
206484
206484
206484
206484
206484
206484
206459
206459
206459
206459
206459
206459
206459
206459
206459
206459
206459
206062
206062
205547
205547
205547
205547
205547
205547
205547
205547
205547
205547
205547
205547
205198
205198
205198
205198
205198
205198
205198
205198
205198
205198
205198
205198
205198
205198
204663
204663
204663
204663
204663
204663
204663
204663
204663
204663
204663
204663
204663
204663
204663
204663
204663
204663
204663
204186
204186
204186
204186
204186
204186
204186
204186
204186
204186
204186
204186
204154
204154
204154
204154
204154
204154
204154
204154
204154
204154
204154
204154
204154
204154
204154
204154
204154
204154
204070
204070
204070
204070
204070
204070
204070
204070
204070
204070
204070
204070
204070
204070
204070
204070
204070
204070
204070
203429
203429
203429
203429
203259
203259
203259
203259
203259
203259
201430
201430
201430
201430
201430
201430
201430
201430
201430
201430
201430
201430
200864
200864
200864
200864
200864
200864
200864
200864
200705
200705
200705
200705
200705
200705
200705
200705
200705
200705
200705
200705
200705
200705
200705
200705
198907
198907
198907
198907
198907
198907
198907
198907
198907
198907
198907
198907
198907
198907
198907
198907
198907
198907
198907
196816
196816
196816
196402
196402
196402
196402
196402
196402
196402
196402
196402
196402
196402
196402
196402
196402
196402
196402
196116
196116
196116
196116
196116
196116
196116
196116
196116
196116
196116
196116
195531
195531
195531
195531
195531
195531
195531
195531
195531
195531
195531
195531
195531
195393
195393
195393
195393
195393
195393
195393
195393
193110
193110
193110
193110
193110
193110
192284
192284
192284
192284
190837
190837
190837
190837
190837
190837
190837
190837
190837
190837
190837
190837
190837
190837
190837
190837
190837
190837
190837
190837
190151
190151
190151
190151
190151
190151
190151
190151
190151
190151
190151
190151
190151
190151
190151
190151
190151
187205
187205
187205
187205
187205
187205
187205
187205
187205
187205
187205
187205
187205
186005
186005
186005
186005
186005
186005
185158
185158
185158
185158
185158
185158
185158
185158
185158
185158
185158
185158
185158
185158
185158
185158
185158
185158
185158
185158
185082
185082
185082
185082
185082
183907
183907
183907
183907
183907
183907
183907
183907
183078
182545
182545
182545
182545
182545
182545
182545
182545
182545
182545
182545
182545
182545
182545
182545
182545
182545
181047
181047
181047
181047
181047
181047
181047
181047
180289
180289
180289
180289
180289
180289
180289
180289
180289
180289
180289
180289
180289
180289
180289
180289
180289
180289
180178
180178
179865
179865
179865
179865
179865
179865
179865
179865
179865
179865
179865
179815
179815
179815
179815
179815
179815
179815
179815
179815
177478
177478
177478
177478
177478
177478
177478
177478
177478
177478
177478
177478
177478
177478
177478
177478
177478
177478
177478
177478
176510
176510
176510
176510
176510
176510
174878
174878
174878
174878
174878
174878
174878
174878
174878
174878
174878
174878
174878
174878
174878
174077
174077
174077
174077
174077
174077
174077
174077
174077
174077
173197
173197
173197
173197
173197
173197
173197
173197
173197
173197
173197
171314
171314
171314
171314
171314
169871
169871
169871
169871
168620
168620
167915
167915
167915
167915
167915
167915
167915
167915
167031
167031
167031
167031
167031
167031
167031
167031
167031
167031
167031
167031
167031
167031
167031
167031
165460
165460
165460
165460
165460
165460
165425
165425
165425
165425
165425
165425
165425
165425
165425
165425
165425
165425
161024
161024
161024
161024
161024
161024
161024
161024
161024
160747
160747
160747
160747
160747
160747
160747
160747
160747
160747
160747
160747
160747
160747
160747
160747
160747
160747
160197
160197
160197
160197
159907
159907
159907
159907
159907
159907
159410
159410
159410
159410
159410
159410
159410
159410
159410
159410
158553
158553
158553
158553
158553
158553
158553
158553
158553
158553
158553
158553
158553
158553
158553
158553
158553
158553
158553
157789
157789
157789
157789
157789
157789
157789
157789
157789
157789
157789
156104
156104
156104
156104
156104
156104
156104
156104
156104
156104
156104
156104
156104
156104
156104
156104
156104
156104
154743
154743
154743
154591
154591
154591
154591
154591
154591
154591
154591
154591
154591
154591
154591
154591
154591
154591
154591
154591
154591
154591
154591
154553
154553
154553
154553
154553
154553
154553
154553
154553
154553
154553
154553
154553
154553
153241
153241
153241
153241
153241
153241
153241
153241
152501
152501
151550
151550
151550
151550
151550
151550
151550
151550
151550
151550
151550
151550
151550
151550
151550
151550
151550
151550
151039
151039
151039
151039
151039
150266
150266
150266
150266
150266
150266
150266
150266
150266
150266
150266
150266
148180
148180
148180
148180
148180
148180
148180
148180
146394
146394
146360
146360
146360
146360
146360
146360
146360
146360
146360
145144
145144
145144
145144
145144
145144
145144
145144
145144
145144
145144
145144
145144
145144
145144
144061
144061
144061
144061
144061
144061
144061
144061
134773
134773
134773
134773
134773
134773
134773
134773
134773
134773
134773
134773
134773
134773
134773
134773
134773
134773
133758
133758
133758
133758
133758
133758
133758
133758
133758
133758
133758
133758
133758
133194
133194
133194
133194
133194
133194
133194
133194
133194
133194
133194
133194
133194
133194
133194
133194
131991
131991
131991
131991
131991
131991
131991
131991
131991
131991
131991
131991
130356
130356
130356
130356
130356
130356
130356
130356
130356
130356
130356
130356
130356
130356
130356
130356
130202
130202
130202
130202
129526
129526
129526
129526
129526
129526
129526
129240
129240
129240
129240
129240
129240
129240
129240
128368
128368
128368
128368
128368
128368
128368
128368
128368
128368
128368
128368
128368
128368
128368
127586
127586
127586
127586
127586
127586
127586
127586
127586
127586
127586
127586
127586
127586
127586
127586
127586
126889
126889
126889
126889
126889
126889
126889
126889
126889
126889
126889
126889
126889
126889
126889
126889
126889
126239
126239
126239
126239
126239
126239
126239
126239
126239
126239
126239
126239
126239
126239
126239
126239
126239
124970
124970
124970
124970
124970
124970
124970
124970
124970
124970
124970
124970
124970
124970
124890
124890
124890
124890
124890
124890
124890
124890
124890
124890
124890
124890
124890
124890
124890
124890
124890
124789
124789
124789
124789
122031
122031
122031
122031
122031
122031
122031
122031
122031
121872
121872
121872
121872
121872
121872
121872
121872
121872
121872
121872
121872
121872
121872
121872
121848
121848
121848
121848
121848
121848
121848
121848
121104
121104
121104
121104
121104
121104
120827
120827
120827
120827
120827
119833
118346
118346
118346
118346
118346
118346
118346
118346
117287
117287
114429
114429
114429
114429
114429
114429
114429
113271
113271
113271
113271
113271
113271
113271
113271
113262
113262
113262
113262
113262
113262
113262
113262
113262
113262
113262
113262
113262
113262
113262
113262
113262
112340
112340
112340
112340
112340
112340
112340
112340
112340
112340
112266
112266
112266
112266
112266
112266
112266
112266
112266
112266
112266
112266
112147
112147
112147
112147
112147
112147
112147
112147
112147
112147
112147
110862
110862
110862
110862
110862
110582
110148
110148
110148
110148
110148
110148
110148
110148
110148
110148
110148
109054
109054
109054
109054
106666
106666
106666
106666
106629
106629
106629
106629
106629
105417
105417
105417
105417
105417
105417
105417
105417
105417
105417
105417
105417
105417
105417
105374
105374
105374
105374
105374
105374
105374
105374
105374
104275
104275
104275
104270
104270
104270
104270
104270
104270
104270
104270
104270
104270
104270
104270
104270
104270
104270
104270
104270
104270
103337
103337
103337
103337
103337
103337
103337
103337
103337
103337
103337
103337
103337
103337
103337
103337
103337
102479
102327
102327
102327
102327
102327
102327
102327
102327
102327
101786
101786
101786
100973
100973
100973
100973
100973
100973
100973
100973
100973
100973
100973
100973
100973
100973
100973
97859
97859
97859
97859
97859
97859
97859
97859
96772
96772
96772
96772
96772
96772
96772
95467
95467
95467
95467
95467
95467
94542
94542
94542
94542
94542
94542
94542
94542
94542
94542
94542
94542
94542
94542
94542
92055
92055
92055
92055
92055
92051
92051
92051
92051
92051
92051
92051
92051
92051
92051
92051
92051
92051
92051
92051
90271
90271
90271
88731
88731
88731
88731
88731
86646
86646
86646
86646
86646
86646
86646
85952
85952
85952
85952
85952
85952
85952
85952
85952
85952
85952
85952
85952
85952
85952
85921
80512
79081
79081
79081
79081
79081
79081
78767
78767
78767
78767
78767
78767
78767
78767
78767
78767
78767
78767
78767
78767
78767
78767
78767
78767
78767
78684
78611
78611
78611
78611
78611
78611
78611
78611
78611
78611
78611
78611
78611
78611
78611
76511
76511
76511
76511
76511
76417
76417
76417
76417
76417
76417
76417
76417
76417
76417
76417
76417
76417
76417
76417
76417
76417
76417
76417
76417
75586
75586
75586
75586
75586
75586
75586
75586
75586
75586
75586
75586
75586
75586
75586
75586
75586
75586
75586
75586
75407
75407
75407
72049
72049
72049
72049
72049
72049
72049
72049
72049
72049
72049
72049
72049
72049
72049
72049
72049
72049
72049
72049
71186
71186
71186
71186
68765
68765
68765
68765
68765
68765
68765
68765
68765
68765
68765
68765
68765
68765
68765
66809
66809
